<?xml version = "1.0" encoding="UTF-8" standalone="yes"?>
<CPLEXSolution version="1.2">
 <header
   problemName="matmul_dfg__3_1.0.lp"
   solutionName="incumbent"
   solutionIndex="-1"
   objectiveValue="21"
   solutionTypeValue="3"
   solutionTypeString="primal"
   solutionStatusValue="101"
   solutionStatusString="integer optimal solution"
   solutionMethodString="mip"
   primalFeasible="1"
   dualFeasible="1"
   MIPNodes="0"
   MIPIterations="28"
   writeLevel="1"/>
 <quality
   epInt="1.0000000000000001e-05"
   epRHS="9.9999999999999995e-07"
   maxIntInfeas="0"
   maxPrimalInfeas="0"
   maxX="12"
   maxSlack="10"/>
 <linearConstraints>
  <constraint name="c1" index="0" slack="0"/>
  <constraint name="c2" index="1" slack="0"/>
  <constraint name="c3" index="2" slack="0"/>
  <constraint name="c4" index="3" slack="0"/>
  <constraint name="c5" index="4" slack="0"/>
  <constraint name="c6" index="5" slack="0"/>
  <constraint name="c7" index="6" slack="0"/>
  <constraint name="c8" index="7" slack="0"/>
  <constraint name="c9" index="8" slack="0"/>
  <constraint name="c10" index="9" slack="0"/>
  <constraint name="c11" index="10" slack="0"/>
  <constraint name="c12" index="11" slack="0"/>
  <constraint name="c13" index="12" slack="0"/>
  <constraint name="c14" index="13" slack="0"/>
  <constraint name="c15" index="14" slack="0"/>
  <constraint name="c16" index="15" slack="0"/>
  <constraint name="c17" index="16" slack="0"/>
  <constraint name="c18" index="17" slack="0"/>
  <constraint name="c19" index="18" slack="0"/>
  <constraint name="c20" index="19" slack="0"/>
  <constraint name="c21" index="20" slack="0"/>
  <constraint name="c22" index="21" slack="0"/>
  <constraint name="c23" index="22" slack="0"/>
  <constraint name="c24" index="23" slack="0"/>
  <constraint name="c25" index="24" slack="0"/>
  <constraint name="c26" index="25" slack="0"/>
  <constraint name="c27" index="26" slack="0"/>
  <constraint name="c28" index="27" slack="0"/>
  <constraint name="c29" index="28" slack="0"/>
  <constraint name="c30" index="29" slack="0"/>
  <constraint name="c31" index="30" slack="0"/>
  <constraint name="c32" index="31" slack="0"/>
  <constraint name="c33" index="32" slack="0"/>
  <constraint name="c34" index="33" slack="0"/>
  <constraint name="c35" index="34" slack="0"/>
  <constraint name="c36" index="35" slack="0"/>
  <constraint name="c37" index="36" slack="0"/>
  <constraint name="c38" index="37" slack="0"/>
  <constraint name="c39" index="38" slack="0"/>
  <constraint name="c40" index="39" slack="0"/>
  <constraint name="c41" index="40" slack="0"/>
  <constraint name="c42" index="41" slack="0"/>
  <constraint name="c43" index="42" slack="0"/>
  <constraint name="c44" index="43" slack="0"/>
  <constraint name="c45" index="44" slack="0"/>
  <constraint name="c46" index="45" slack="0"/>
  <constraint name="c47" index="46" slack="0"/>
  <constraint name="c48" index="47" slack="0"/>
  <constraint name="c49" index="48" slack="0"/>
  <constraint name="c50" index="49" slack="0"/>
  <constraint name="c51" index="50" slack="0"/>
  <constraint name="c52" index="51" slack="0"/>
  <constraint name="c53" index="52" slack="0"/>
  <constraint name="c54" index="53" slack="0"/>
  <constraint name="c55" index="54" slack="0"/>
  <constraint name="c56" index="55" slack="0"/>
  <constraint name="c57" index="56" slack="0"/>
  <constraint name="c58" index="57" slack="0"/>
  <constraint name="c59" index="58" slack="0"/>
  <constraint name="c60" index="59" slack="0"/>
  <constraint name="c61" index="60" slack="0"/>
  <constraint name="c62" index="61" slack="0"/>
  <constraint name="c63" index="62" slack="0"/>
  <constraint name="c64" index="63" slack="0"/>
  <constraint name="c65" index="64" slack="0"/>
  <constraint name="c66" index="65" slack="0"/>
  <constraint name="c67" index="66" slack="0"/>
  <constraint name="c68" index="67" slack="0"/>
  <constraint name="c69" index="68" slack="0"/>
  <constraint name="c70" index="69" slack="0"/>
  <constraint name="c71" index="70" slack="0"/>
  <constraint name="c72" index="71" slack="0"/>
  <constraint name="c73" index="72" slack="0"/>
  <constraint name="c74" index="73" slack="0"/>
  <constraint name="c75" index="74" slack="0"/>
  <constraint name="c76" index="75" slack="0"/>
  <constraint name="c77" index="76" slack="0"/>
  <constraint name="c78" index="77" slack="0"/>
  <constraint name="c79" index="78" slack="0"/>
  <constraint name="c80" index="79" slack="0"/>
  <constraint name="c81" index="80" slack="0"/>
  <constraint name="c82" index="81" slack="0"/>
  <constraint name="c83" index="82" slack="0"/>
  <constraint name="c84" index="83" slack="0"/>
  <constraint name="c85" index="84" slack="0"/>
  <constraint name="c86" index="85" slack="0"/>
  <constraint name="c87" index="86" slack="0"/>
  <constraint name="c88" index="87" slack="0"/>
  <constraint name="c89" index="88" slack="0"/>
  <constraint name="c90" index="89" slack="0"/>
  <constraint name="c91" index="90" slack="0"/>
  <constraint name="c92" index="91" slack="0"/>
  <constraint name="c93" index="92" slack="0"/>
  <constraint name="c94" index="93" slack="0"/>
  <constraint name="c95" index="94" slack="0"/>
  <constraint name="c96" index="95" slack="0"/>
  <constraint name="c97" index="96" slack="0"/>
  <constraint name="c98" index="97" slack="0"/>
  <constraint name="c99" index="98" slack="0"/>
  <constraint name="c100" index="99" slack="0"/>
  <constraint name="c101" index="100" slack="0"/>
  <constraint name="c102" index="101" slack="0"/>
  <constraint name="c103" index="102" slack="0"/>
  <constraint name="c104" index="103" slack="0"/>
  <constraint name="c105" index="104" slack="0"/>
  <constraint name="c106" index="105" slack="0"/>
  <constraint name="c107" index="106" slack="0"/>
  <constraint name="c108" index="107" slack="0"/>
  <constraint name="c109" index="108" slack="0"/>
  <constraint name="c110" index="109" slack="4"/>
  <constraint name="c111" index="110" slack="1"/>
  <constraint name="c112" index="111" slack="5"/>
  <constraint name="c113" index="112" slack="4"/>
  <constraint name="c114" index="113" slack="5"/>
  <constraint name="c115" index="114" slack="0"/>
  <constraint name="c116" index="115" slack="0"/>
  <constraint name="c117" index="116" slack="0"/>
  <constraint name="c118" index="117" slack="0"/>
  <constraint name="c119" index="118" slack="4"/>
  <constraint name="c120" index="119" slack="0"/>
  <constraint name="c121" index="120" slack="10"/>
  <constraint name="c122" index="121" slack="0"/>
  <constraint name="c123" index="122" slack="4"/>
  <constraint name="c124" index="123" slack="1"/>
  <constraint name="c125" index="124" slack="2"/>
  <constraint name="c126" index="125" slack="8"/>
  <constraint name="c127" index="126" slack="0"/>
  <constraint name="c128" index="127" slack="6"/>
  <constraint name="c129" index="128" slack="4"/>
  <constraint name="c130" index="129" slack="0"/>
  <constraint name="c131" index="130" slack="0"/>
  <constraint name="c132" index="131" slack="0"/>
  <constraint name="c133" index="132" slack="0"/>
  <constraint name="c134" index="133" slack="0"/>
  <constraint name="c135" index="134" slack="0"/>
  <constraint name="c136" index="135" slack="0"/>
  <constraint name="c137" index="136" slack="0"/>
  <constraint name="c138" index="137" slack="0"/>
  <constraint name="c139" index="138" slack="0"/>
  <constraint name="c140" index="139" slack="1"/>
  <constraint name="c141" index="140" slack="1"/>
  <constraint name="c142" index="141" slack="0"/>
  <constraint name="c143" index="142" slack="0"/>
  <constraint name="c144" index="143" slack="0"/>
  <constraint name="c145" index="144" slack="1"/>
  <constraint name="c146" index="145" slack="0"/>
  <constraint name="c147" index="146" slack="0"/>
  <constraint name="c148" index="147" slack="0"/>
  <constraint name="c149" index="148" slack="0"/>
  <constraint name="c150" index="149" slack="0"/>
  <constraint name="c151" index="150" slack="0"/>
  <constraint name="c152" index="151" slack="0"/>
  <constraint name="c153" index="152" slack="0"/>
  <constraint name="c154" index="153" slack="0"/>
  <constraint name="c155" index="154" slack="0"/>
  <constraint name="c156" index="155" slack="0"/>
  <constraint name="c157" index="156" slack="0"/>
  <constraint name="c158" index="157" slack="1"/>
  <constraint name="c159" index="158" slack="0"/>
  <constraint name="c160" index="159" slack="0"/>
  <constraint name="c161" index="160" slack="0"/>
  <constraint name="c162" index="161" slack="0"/>
  <constraint name="c163" index="162" slack="0"/>
  <constraint name="c164" index="163" slack="0"/>
  <constraint name="c165" index="164" slack="0"/>
  <constraint name="c166" index="165" slack="0"/>
  <constraint name="c167" index="166" slack="0"/>
  <constraint name="c168" index="167" slack="0"/>
  <constraint name="c169" index="168" slack="1"/>
  <constraint name="c170" index="169" slack="0"/>
  <constraint name="c171" index="170" slack="0"/>
  <constraint name="c172" index="171" slack="0"/>
  <constraint name="c173" index="172" slack="0"/>
  <constraint name="c174" index="173" slack="0"/>
  <constraint name="c175" index="174" slack="1"/>
  <constraint name="c176" index="175" slack="0"/>
  <constraint name="c177" index="176" slack="0"/>
  <constraint name="c178" index="177" slack="0"/>
  <constraint name="c179" index="178" slack="2"/>
  <constraint name="c180" index="179" slack="0"/>
  <constraint name="c181" index="180" slack="0"/>
  <constraint name="c182" index="181" slack="0"/>
  <constraint name="c183" index="182" slack="0"/>
  <constraint name="c184" index="183" slack="0"/>
  <constraint name="c185" index="184" slack="0"/>
  <constraint name="c186" index="185" slack="0"/>
  <constraint name="c187" index="186" slack="0"/>
  <constraint name="c188" index="187" slack="0"/>
  <constraint name="c189" index="188" slack="0"/>
  <constraint name="c190" index="189" slack="0"/>
  <constraint name="c191" index="190" slack="0"/>
  <constraint name="c192" index="191" slack="0"/>
  <constraint name="c193" index="192" slack="0"/>
  <constraint name="c194" index="193" slack="0"/>
  <constraint name="c195" index="194" slack="0"/>
  <constraint name="c196" index="195" slack="0"/>
  <constraint name="c197" index="196" slack="1"/>
  <constraint name="c198" index="197" slack="0"/>
  <constraint name="c199" index="198" slack="0"/>
  <constraint name="c200" index="199" slack="0"/>
  <constraint name="c201" index="200" slack="1"/>
  <constraint name="c202" index="201" slack="0"/>
  <constraint name="c203" index="202" slack="0"/>
  <constraint name="c204" index="203" slack="0"/>
  <constraint name="c205" index="204" slack="0"/>
  <constraint name="c206" index="205" slack="0"/>
  <constraint name="c207" index="206" slack="0"/>
  <constraint name="c208" index="207" slack="0"/>
  <constraint name="c209" index="208" slack="0"/>
  <constraint name="c210" index="209" slack="0"/>
  <constraint name="c211" index="210" slack="0"/>
  <constraint name="c212" index="211" slack="0"/>
  <constraint name="c213" index="212" slack="0"/>
  <constraint name="c214" index="213" slack="0"/>
  <constraint name="c215" index="214" slack="0"/>
  <constraint name="c216" index="215" slack="0"/>
  <constraint name="c217" index="216" slack="0"/>
  <constraint name="c218" index="217" slack="0"/>
  <constraint name="c219" index="218" slack="0"/>
  <constraint name="c220" index="219" slack="0"/>
  <constraint name="c221" index="220" slack="0"/>
  <constraint name="c222" index="221" slack="0"/>
  <constraint name="c223" index="222" slack="1"/>
  <constraint name="c224" index="223" slack="0"/>
  <constraint name="c225" index="224" slack="0"/>
  <constraint name="c226" index="225" slack="0"/>
  <constraint name="c227" index="226" slack="1"/>
  <constraint name="c228" index="227" slack="0"/>
  <constraint name="c229" index="228" slack="0"/>
  <constraint name="c230" index="229" slack="0"/>
  <constraint name="c231" index="230" slack="0"/>
  <constraint name="c232" index="231" slack="0"/>
  <constraint name="c233" index="232" slack="0"/>
  <constraint name="c234" index="233" slack="0"/>
  <constraint name="c235" index="234" slack="0"/>
  <constraint name="c236" index="235" slack="1"/>
  <constraint name="c237" index="236" slack="0"/>
  <constraint name="c238" index="237" slack="0"/>
  <constraint name="c239" index="238" slack="0"/>
  <constraint name="c240" index="239" slack="0"/>
  <constraint name="c241" index="240" slack="0"/>
  <constraint name="c242" index="241" slack="0"/>
  <constraint name="c243" index="242" slack="0"/>
  <constraint name="c244" index="243" slack="0"/>
  <constraint name="c245" index="244" slack="0"/>
 </linearConstraints>
 <variables>
  <variable name="M1" index="0" value="12"/>
  <variable name="M2" index="1" value="9"/>
  <variable name="x0,11" index="2" value="1"/>
  <variable name="x1,9" index="3" value="1"/>
  <variable name="x2,8" index="4" value="1"/>
  <variable name="x3,7" index="5" value="1"/>
  <variable name="x4,11" index="6" value="1"/>
  <variable name="x5,9" index="7" value="1"/>
  <variable name="x6,8" index="8" value="1"/>
  <variable name="x7,7" index="9" value="1"/>
  <variable name="x8,10" index="10" value="1"/>
  <variable name="x8,11" index="11" value="-0"/>
  <variable name="x9,8" index="12" value="1"/>
  <variable name="x9,9" index="13" value="-0"/>
  <variable name="x10,7" index="14" value="1"/>
  <variable name="x10,8" index="15" value="-0"/>
  <variable name="x11,6" index="16" value="1"/>
  <variable name="x11,7" index="17" value="-0"/>
  <variable name="x12,9" index="18" value="-0"/>
  <variable name="x12,10" index="19" value="-0"/>
  <variable name="x12,11" index="20" value="1"/>
  <variable name="x13,7" index="21" value="0"/>
  <variable name="x13,8" index="22" value="-0"/>
  <variable name="x13,9" index="23" value="1"/>
  <variable name="x14,6" index="24" value="0"/>
  <variable name="x14,7" index="25" value="1"/>
  <variable name="x14,8" index="26" value="-0"/>
  <variable name="x15,5" index="27" value="1"/>
  <variable name="x15,6" index="28" value="-0"/>
  <variable name="x15,7" index="29" value="-0"/>
  <variable name="x16,9" index="30" value="0"/>
  <variable name="x16,10" index="31" value="1"/>
  <variable name="x17,8" index="32" value="0"/>
  <variable name="x17,9" index="33" value="1"/>
  <variable name="x18,7" index="34" value="0"/>
  <variable name="x18,8" index="35" value="1"/>
  <variable name="x19,5" index="36" value="1"/>
  <variable name="x20,9" index="37" value="1"/>
  <variable name="x20,10" index="38" value="-0"/>
  <variable name="x21,8" index="39" value="1"/>
  <variable name="x21,9" index="40" value="-0"/>
  <variable name="x22,7" index="41" value="1"/>
  <variable name="x22,8" index="42" value="-0"/>
  <variable name="x23,5" index="43" value="1"/>
  <variable name="x24,4" index="44" value="1"/>
  <variable name="x25,8" index="45" value="1"/>
  <variable name="x25,9" index="46" value="-0"/>
  <variable name="x25,10" index="47" value="-0"/>
  <variable name="x26,7" index="48" value="1"/>
  <variable name="x26,8" index="49" value="-0"/>
  <variable name="x26,9" index="50" value="0"/>
  <variable name="x27,6" index="51" value="1"/>
  <variable name="x27,7" index="52" value="-0"/>
  <variable name="x27,8" index="53" value="-0"/>
  <variable name="x28,4" index="54" value="1"/>
  <variable name="x28,5" index="55" value="0"/>
  <variable name="x29,3" index="56" value="1"/>
  <variable name="x30,7" index="57" value="0"/>
  <variable name="x30,8" index="58" value="1"/>
  <variable name="x30,9" index="59" value="-0"/>
  <variable name="x30,10" index="60" value="-0"/>
  <variable name="x31,6" index="61" value="1"/>
  <variable name="x31,7" index="62" value="-0"/>
  <variable name="x31,8" index="63" value="-0"/>
  <variable name="x31,9" index="64" value="-0"/>
  <variable name="x32,5" index="65" value="1"/>
  <variable name="x32,6" index="66" value="-0"/>
  <variable name="x32,7" index="67" value="-0"/>
  <variable name="x32,8" index="68" value="-0"/>
  <variable name="x33,3" index="69" value="1"/>
  <variable name="x33,4" index="70" value="0"/>
  <variable name="x33,5" index="71" value="0"/>
  <variable name="x34,2" index="72" value="1"/>
  <variable name="x35,5" index="73" value="1"/>
  <variable name="x35,6" index="74" value="-0"/>
  <variable name="x35,7" index="75" value="-0"/>
  <variable name="x35,8" index="76" value="-0"/>
  <variable name="x35,9" index="77" value="-0"/>
  <variable name="x35,10" index="78" value="-0"/>
  <variable name="x35,11" index="79" value="0"/>
  <variable name="x36,3" index="80" value="1"/>
  <variable name="x36,4" index="81" value="-0"/>
  <variable name="x36,5" index="82" value="-0"/>
  <variable name="x36,6" index="83" value="-0"/>
  <variable name="x36,7" index="84" value="-0"/>
  <variable name="x36,8" index="85" value="-0"/>
  <variable name="x36,9" index="86" value="-0"/>
  <variable name="x37,2" index="87" value="1"/>
  <variable name="x37,3" index="88" value="-0"/>
  <variable name="x37,4" index="89" value="-0"/>
  <variable name="x37,5" index="90" value="-0"/>
  <variable name="x37,6" index="91" value="-0"/>
  <variable name="x37,7" index="92" value="-0"/>
  <variable name="x37,8" index="93" value="-0"/>
  <variable name="x38,1" index="94" value="1"/>
  <variable name="x39,9" index="95" value="0"/>
  <variable name="x39,10" index="96" value="1"/>
  <variable name="x40,8" index="97" value="0"/>
  <variable name="x40,9" index="98" value="1"/>
  <variable name="x41,7" index="99" value="1"/>
  <variable name="x41,8" index="100" value="-0"/>
  <variable name="x42,5" index="101" value="1"/>
  <variable name="x43,9" index="102" value="0"/>
  <variable name="x43,10" index="103" value="1"/>
  <variable name="x44,8" index="104" value="0"/>
  <variable name="x44,9" index="105" value="1"/>
  <variable name="x45,7" index="106" value="0"/>
  <variable name="x45,8" index="107" value="1"/>
  <variable name="x46,5" index="108" value="1"/>
  <variable name="x47,4" index="109" value="1"/>
  <variable name="x48,8" index="110" value="0"/>
  <variable name="x48,9" index="111" value="-0"/>
  <variable name="x48,10" index="112" value="1"/>
  <variable name="x49,7" index="113" value="0"/>
  <variable name="x49,8" index="114" value="-0"/>
  <variable name="x49,9" index="115" value="1"/>
  <variable name="x50,6" index="116" value="1"/>
  <variable name="x50,7" index="117" value="-0"/>
  <variable name="x50,8" index="118" value="-0"/>
  <variable name="x51,4" index="119" value="1"/>
  <variable name="x51,5" index="120" value="0"/>
  <variable name="x52,3" index="121" value="1"/>
  <variable name="x53,7" index="122" value="1"/>
  <variable name="x53,8" index="123" value="-0"/>
  <variable name="x53,9" index="124" value="-0"/>
  <variable name="x53,10" index="125" value="-0"/>
  <variable name="x54,6" index="126" value="1"/>
  <variable name="x54,7" index="127" value="-0"/>
  <variable name="x54,8" index="128" value="-0"/>
  <variable name="x54,9" index="129" value="0"/>
  <variable name="x55,5" index="130" value="1"/>
  <variable name="x55,6" index="131" value="-0"/>
  <variable name="x55,7" index="132" value="-0"/>
  <variable name="x55,8" index="133" value="-0"/>
  <variable name="x56,3" index="134" value="1"/>
  <variable name="x56,4" index="135" value="0"/>
  <variable name="x56,5" index="136" value="0"/>
  <variable name="x57,2" index="137" value="1"/>
  <variable name="x58,5" index="138" value="1"/>
  <variable name="x58,6" index="139" value="-0"/>
  <variable name="x58,7" index="140" value="-0"/>
  <variable name="x58,8" index="141" value="-0"/>
  <variable name="x58,9" index="142" value="-0"/>
  <variable name="x58,10" index="143" value="-0"/>
  <variable name="x58,11" index="144" value="-0"/>
  <variable name="x59,3" index="145" value="1"/>
  <variable name="x59,4" index="146" value="-0"/>
  <variable name="x59,5" index="147" value="-0"/>
  <variable name="x59,6" index="148" value="-0"/>
  <variable name="x59,7" index="149" value="-0"/>
  <variable name="x59,8" index="150" value="-0"/>
  <variable name="x59,9" index="151" value="-0"/>
  <variable name="x60,2" index="152" value="1"/>
  <variable name="x60,3" index="153" value="-0"/>
  <variable name="x60,4" index="154" value="-0"/>
  <variable name="x60,5" index="155" value="-0"/>
  <variable name="x60,6" index="156" value="-0"/>
  <variable name="x60,7" index="157" value="-0"/>
  <variable name="x60,8" index="158" value="-0"/>
  <variable name="x61,1" index="159" value="1"/>
  <variable name="x62,9" index="160" value="0"/>
  <variable name="x62,10" index="161" value="1"/>
  <variable name="x63,8" index="162" value="0"/>
  <variable name="x63,9" index="163" value="1"/>
  <variable name="x64,7" index="164" value="0"/>
  <variable name="x64,8" index="165" value="1"/>
  <variable name="x65,5" index="166" value="1"/>
  <variable name="x66,9" index="167" value="0"/>
  <variable name="x66,10" index="168" value="1"/>
  <variable name="x67,8" index="169" value="0"/>
  <variable name="x67,9" index="170" value="1"/>
  <variable name="x68,7" index="171" value="0"/>
  <variable name="x68,8" index="172" value="1"/>
  <variable name="x69,5" index="173" value="1"/>
  <variable name="x70,4" index="174" value="1"/>
  <variable name="x71,8" index="175" value="1"/>
  <variable name="x71,9" index="176" value="-0"/>
  <variable name="x71,10" index="177" value="0"/>
  <variable name="x72,7" index="178" value="1"/>
  <variable name="x72,8" index="179" value="-0"/>
  <variable name="x72,9" index="180" value="-0"/>
  <variable name="x73,6" index="181" value="1"/>
  <variable name="x73,7" index="182" value="0"/>
  <variable name="x73,8" index="183" value="-0"/>
  <variable name="x74,4" index="184" value="1"/>
  <variable name="x74,5" index="185" value="0"/>
  <variable name="x75,3" index="186" value="1"/>
  <variable name="x76,7" index="187" value="1"/>
  <variable name="x76,8" index="188" value="-0"/>
  <variable name="x76,9" index="189" value="-0"/>
  <variable name="x76,10" index="190" value="-0"/>
  <variable name="x77,6" index="191" value="1"/>
  <variable name="x77,7" index="192" value="-0"/>
  <variable name="x77,8" index="193" value="-0"/>
  <variable name="x77,9" index="194" value="-0"/>
  <variable name="x78,5" index="195" value="1"/>
  <variable name="x78,6" index="196" value="-0"/>
  <variable name="x78,7" index="197" value="-0"/>
  <variable name="x78,8" index="198" value="-0"/>
  <variable name="x79,3" index="199" value="1"/>
  <variable name="x79,4" index="200" value="0"/>
  <variable name="x79,5" index="201" value="0"/>
  <variable name="x80,2" index="202" value="1"/>
  <variable name="x81,5" index="203" value="1"/>
  <variable name="x81,6" index="204" value="-0"/>
  <variable name="x81,7" index="205" value="-0"/>
  <variable name="x81,8" index="206" value="-0"/>
  <variable name="x81,9" index="207" value="-0"/>
  <variable name="x81,10" index="208" value="-0"/>
  <variable name="x81,11" index="209" value="-0"/>
  <variable name="x82,3" index="210" value="1"/>
  <variable name="x82,4" index="211" value="-0"/>
  <variable name="x82,5" index="212" value="-0"/>
  <variable name="x82,6" index="213" value="-0"/>
  <variable name="x82,7" index="214" value="-0"/>
  <variable name="x82,8" index="215" value="-0"/>
  <variable name="x82,9" index="216" value="-0"/>
  <variable name="x83,2" index="217" value="1"/>
  <variable name="x83,3" index="218" value="-0"/>
  <variable name="x83,4" index="219" value="-0"/>
  <variable name="x83,5" index="220" value="-0"/>
  <variable name="x83,6" index="221" value="-0"/>
  <variable name="x83,7" index="222" value="-0"/>
  <variable name="x83,8" index="223" value="-0"/>
  <variable name="x84,1" index="224" value="1"/>
  <variable name="x85,9" index="225" value="0"/>
  <variable name="x85,10" index="226" value="1"/>
  <variable name="x86,8" index="227" value="0"/>
  <variable name="x86,9" index="228" value="1"/>
  <variable name="x87,7" index="229" value="0"/>
  <variable name="x87,8" index="230" value="1"/>
  <variable name="x88,5" index="231" value="1"/>
  <variable name="x89,9" index="232" value="0"/>
  <variable name="x89,10" index="233" value="1"/>
  <variable name="x90,8" index="234" value="0"/>
  <variable name="x90,9" index="235" value="1"/>
  <variable name="x91,7" index="236" value="0"/>
  <variable name="x91,8" index="237" value="1"/>
  <variable name="x92,5" index="238" value="1"/>
  <variable name="x93,4" index="239" value="1"/>
  <variable name="x94,8" index="240" value="1"/>
  <variable name="x94,9" index="241" value="-0"/>
  <variable name="x94,10" index="242" value="0"/>
  <variable name="x95,7" index="243" value="1"/>
  <variable name="x95,8" index="244" value="-0"/>
  <variable name="x95,9" index="245" value="-0"/>
  <variable name="x96,6" index="246" value="1"/>
  <variable name="x96,7" index="247" value="-0"/>
  <variable name="x96,8" index="248" value="-0"/>
  <variable name="x97,4" index="249" value="1"/>
  <variable name="x97,5" index="250" value="0"/>
  <variable name="x98,3" index="251" value="1"/>
  <variable name="x99,7" index="252" value="0"/>
  <variable name="x99,8" index="253" value="1"/>
  <variable name="x99,9" index="254" value="-0"/>
  <variable name="x99,10" index="255" value="-0"/>
  <variable name="x100,6" index="256" value="1"/>
  <variable name="x100,7" index="257" value="-0"/>
  <variable name="x100,8" index="258" value="-0"/>
  <variable name="x100,9" index="259" value="-0"/>
  <variable name="x101,5" index="260" value="1"/>
  <variable name="x101,6" index="261" value="-0"/>
  <variable name="x101,7" index="262" value="-0"/>
  <variable name="x101,8" index="263" value="-0"/>
  <variable name="x102,3" index="264" value="1"/>
  <variable name="x102,4" index="265" value="0"/>
  <variable name="x102,5" index="266" value="0"/>
  <variable name="x103,2" index="267" value="1"/>
  <variable name="x104,5" index="268" value="1"/>
  <variable name="x104,6" index="269" value="-0"/>
  <variable name="x104,7" index="270" value="-0"/>
  <variable name="x104,8" index="271" value="-0"/>
  <variable name="x104,9" index="272" value="-0"/>
  <variable name="x104,10" index="273" value="-0"/>
  <variable name="x104,11" index="274" value="-0"/>
  <variable name="x105,3" index="275" value="1"/>
  <variable name="x105,4" index="276" value="-0"/>
  <variable name="x105,5" index="277" value="-0"/>
  <variable name="x105,6" index="278" value="-0"/>
  <variable name="x105,7" index="279" value="-0"/>
  <variable name="x105,8" index="280" value="-0"/>
  <variable name="x105,9" index="281" value="-0"/>
  <variable name="x106,2" index="282" value="1"/>
  <variable name="x106,3" index="283" value="-0"/>
  <variable name="x106,4" index="284" value="-0"/>
  <variable name="x106,5" index="285" value="-0"/>
  <variable name="x106,6" index="286" value="-0"/>
  <variable name="x106,7" index="287" value="-0"/>
  <variable name="x106,8" index="288" value="-0"/>
  <variable name="x107,1" index="289" value="1"/>
  <variable name="x108,1" index="290" value="1"/>
  <variable name="x108,2" index="291" value="-0"/>
  <variable name="x108,3" index="292" value="-0"/>
  <variable name="x108,4" index="293" value="-0"/>
  <variable name="x108,5" index="294" value="-0"/>
  <variable name="x108,6" index="295" value="-0"/>
  <variable name="x108,7" index="296" value="-0"/>
  <variable name="x108,8" index="297" value="-0"/>
  <variable name="x108,9" index="298" value="-0"/>
  <variable name="x108,10" index="299" value="-0"/>
  <variable name="x108,11" index="300" value="-0"/>
  <variable name="x33,2" index="301" value="0"/>
  <variable name="x36,2" index="302" value="0"/>
  <variable name="x56,2" index="303" value="0"/>
  <variable name="x59,2" index="304" value="0"/>
  <variable name="x79,2" index="305" value="0"/>
  <variable name="x82,2" index="306" value="0"/>
  <variable name="x102,2" index="307" value="0"/>
  <variable name="x105,2" index="308" value="0"/>
  <variable name="x28,3" index="309" value="0"/>
  <variable name="x51,3" index="310" value="0"/>
  <variable name="x74,3" index="311" value="0"/>
  <variable name="x97,3" index="312" value="0"/>
  <variable name="x19,4" index="313" value="0"/>
  <variable name="x23,4" index="314" value="0"/>
  <variable name="x42,4" index="315" value="0"/>
  <variable name="x46,4" index="316" value="0"/>
  <variable name="x65,4" index="317" value="0"/>
  <variable name="x69,4" index="318" value="0"/>
  <variable name="x88,4" index="319" value="0"/>
  <variable name="x92,4" index="320" value="0"/>
  <variable name="x19,6" index="321" value="0"/>
  <variable name="x23,6" index="322" value="0"/>
  <variable name="x28,6" index="323" value="0"/>
  <variable name="x33,6" index="324" value="0"/>
  <variable name="x42,6" index="325" value="0"/>
  <variable name="x46,6" index="326" value="0"/>
  <variable name="x51,6" index="327" value="0"/>
  <variable name="x56,6" index="328" value="0"/>
  <variable name="x65,6" index="329" value="0"/>
  <variable name="x69,6" index="330" value="0"/>
  <variable name="x74,6" index="331" value="0"/>
  <variable name="x79,6" index="332" value="0"/>
  <variable name="x88,6" index="333" value="0"/>
  <variable name="x92,6" index="334" value="0"/>
  <variable name="x97,6" index="335" value="0"/>
  <variable name="x102,6" index="336" value="0"/>
  <variable name="x13,6" index="337" value="0"/>
  <variable name="x30,6" index="338" value="0"/>
  <variable name="x53,6" index="339" value="0"/>
  <variable name="x76,6" index="340" value="0"/>
  <variable name="x99,6" index="341" value="0"/>
  <variable name="x9,7" index="342" value="0"/>
  <variable name="x25,7" index="343" value="0"/>
  <variable name="x48,7" index="344" value="0"/>
  <variable name="x71,7" index="345" value="0"/>
  <variable name="x94,7" index="346" value="0"/>
  <variable name="x1,8" index="347" value="0"/>
  <variable name="x5,8" index="348" value="0"/>
  <variable name="x16,8" index="349" value="0"/>
  <variable name="x20,8" index="350" value="0"/>
  <variable name="x39,8" index="351" value="0"/>
  <variable name="x43,8" index="352" value="0"/>
  <variable name="x62,8" index="353" value="0"/>
  <variable name="x66,8" index="354" value="0"/>
  <variable name="x85,8" index="355" value="0"/>
  <variable name="x89,8" index="356" value="0"/>
  <variable name="x1,10" index="357" value="0"/>
  <variable name="x5,10" index="358" value="0"/>
  <variable name="x9,10" index="359" value="0"/>
  <variable name="x13,10" index="360" value="0"/>
  <variable name="x36,10" index="361" value="0"/>
  <variable name="x59,10" index="362" value="0"/>
  <variable name="x82,10" index="363" value="0"/>
  <variable name="x105,10" index="364" value="0"/>
  <variable name="x16,11" index="365" value="0"/>
  <variable name="x20,11" index="366" value="0"/>
  <variable name="x25,11" index="367" value="0"/>
  <variable name="x30,11" index="368" value="0"/>
  <variable name="x39,11" index="369" value="0"/>
  <variable name="x43,11" index="370" value="0"/>
  <variable name="x48,11" index="371" value="0"/>
  <variable name="x53,11" index="372" value="0"/>
  <variable name="x62,11" index="373" value="0"/>
  <variable name="x66,11" index="374" value="0"/>
  <variable name="x71,11" index="375" value="0"/>
  <variable name="x76,11" index="376" value="0"/>
  <variable name="x85,11" index="377" value="0"/>
  <variable name="x89,11" index="378" value="0"/>
  <variable name="x94,11" index="379" value="0"/>
  <variable name="x99,11" index="380" value="0"/>
 </variables>
</CPLEXSolution>
